study/farce-uclibc/output/PreprocessorErrors/errors.dimacs
c 5 __LINUXTHREADS_OLD__
c 14 __UCLIBC_HAS_STDIO_BUFSIZ_512__
c 28 __UCLIBC_HAS_CTYPE_TABLES__
c 2 __UCLIBC_MALLOC_DEBUGGING__
c 54 __UCLIBC_HAS_IPV6__
c 36 __UCLIBC_HAS_REGEX_OLD__
c 43 __UCLIBC_HAS_CRYPT__
c 24 __UCLIBC_HAS_RPC__
c 20 __UCLIBC_HAS_SHADOW__
c 40 __UCLIBC_HAS_GNU_GLOB__
c 8 __UCLIBC_HAS_STDIO_BUFSIZ_1024__
c 4 __UCLIBC_HAS_THREADS_NATIVE__
c 11 __UCLIBC_SUSV4_LEGACY__
c 41 __UCLIBC_HAS_REALTIME__
c 51 __UCLIBC_HAS_SOCKET__
c 9 __UCLIBC_HAS_STDIO_BUFSIZ_NONE__
c 27 __UCLIBC_HAS_IPV4__
c 17 __UCLIBC_HAS_STDIO_BUILTIN_BUFFER_8__
c 10 __UCLIBC_HAS_STDIO_BUFSIZ_4096__
c 44 __UCLIBC_HAS_SHA512_CRYPT_IMPL__
c 6 __UCLIBC_UCLINUX_BROKEN_MUNMAP__
c 53 __UCLIBC_HAS_RESOLVER_SUPPORT__
c 42 __UCLIBC_HAS_FLOATS__
c 47 __UCLIBC_HAS_BACKTRACE__
c 13 __UCLIBC_HAS_XLOCALE__
c 31 __UCLIBC_HAS_CTYPE_UNSAFE__
c 30 __UCLIBC_HAS_CTYPE_CHECKED__
c 32 __UCLIBC_HAS_LOCALE__
c 49 __UCLIBC_HAS_CRYPT_IMPL__
c 29 __UCLIBC_HAS_CTYPE_ENFORCED__
c 48 __UCLIBC_HAS_GLIBC_CUSTOM_STREAMS__
c 39 __UCLIBC_HAS_GLOB__
c 33 __UCLIBC_HAS_WORDEXP__
c 45 __DO_C99_MATH__
c 55 __UCLIBC_HAS_LFS__
c 35 __UCLIBC_HAS_REGEX__
c 3 __MALLOC__
c 19 __UCLIBC_HAS_STDIO_BUILTIN_BUFFER_4__
c 34 __UCLIBC_HAS_GNU_ERROR__
c 25 __MALLOC_STANDARD__
c 7 __LINUXTHREADS_NEW__
c 12 __UCLIBC_HAS_STDIO_BUFSIZ_256__
c 26 __UCLIBC_HAS_ADVANCED_REALTIME__
c 23 __UCLIBC_HAS_FULL_RPC__
c 56 __UCLIBC_HAS_BSD_ERR__
c 22 __UCLIBC_HAS_WCHAR__
c 16 __UCLIBC_HAS_STDIO_BUFSIZ_8192__
c 21 __UCLIBC_SUSV3_LEGACY__
c 18 __UCLIBC_HAS_STDIO_BUILTIN_BUFFER_NONE__
c 37 __UCLIBC_HAS_SYSLOG__
c 1 __UCLIBC_HAS_THREADS__
c 15 __UCLIBC_HAS_STDIO_BUFSIZ_2048__
c 50 __UCLIBC_HAS_SHA256_CRYPT_IMPL__
c 46 __USE_OLD_VFPRINTF__
c 38 __MALLOC_SIMPLE__
c 52 __UCLIBC_HAS_PTY__
p cnf 56 154
-1 -2 -3 4 5 -6 7 1
-13 8 9 10 -11 12 14 15 16 1
9 17 18 -20 19 1
-21 8 9 10 12 14 15 16 1
8 9 10 12 -22 14 15 16 1
9 17 18 19 -24 -23 1
-4 9 -1 17 18 19 1
9 -11 17 18 19 1
9 17 18 19 -25 1
8 9 10 12 -24 14 15 -23 16 1
8 9 10 12 -2 -3 14 -6 15 16 1
-13 9 17 -22 18 19 1
8 9 10 12 -25 14 15 16 -26 1
-27 -1 4 5 7 1
-1 4 -20 5 7 1
-13 -28 29 30 31 1
9 17 -32 18 19 1
-1 -33 4 5 7 1
-34 8 9 10 12 14 15 16 1
9 17 18 19 -35 -36 1
9 -37 17 18 19 1
-1 -2 -3 4 5 6 7 1
-1 4 -35 5 -36 7 1
9 17 -2 18 19 1
8 9 10 12 14 15 16 -38 1
8 9 10 -37 12 14 15 16 1
8 9 10 12 -33 14 15 16 1
-13 9 -11 17 18 19 1
9 -40 -39 17 18 19 -25 1
-41 -1 4 5 7 1
9 17 18 19 -24 1
-21 9 17 -42 18 19 1
9 17 18 19 -44 -43 1
9 17 18 19 -45 1
9 -1 17 18 19 -5 1
-13 8 9 10 12 -22 14 15 16 1
8 9 10 12 46 14 15 16 1
-1 4 -45 5 7 1
8 9 10 -47 12 14 15 16 1
-13 -1 4 5 7 1
-11 -1 4 5 7 1
9 -39 17 18 19 40 1
-1 4 -46 5 7 1
-13 -1 -22 4 5 7 1
-11 -28 29 30 31 1
-13 -11 -28 29 30 31 1
9 -27 17 18 19 1
-1 -22 4 5 7 1
8 9 10 -39 12 40 14 15 16 1
8 9 10 -48 12 14 15 16 1
-1 4 5 -25 7 1
9 17 18 19 -35 36 1
8 9 10 12 -25 14 15 16 1
9 17 18 19 -49 -43 1
9 17 -2 -3 18 19 -6 1
8 9 10 12 -28 14 15 16 1
-50 -1 4 5 -43 7 1
-1 -42 4 5 7 1
2 -1 -3 4 5 7 1
-1 4 5 46 7 1
-1 4 5 -38 7 1
-21 -1 -42 4 5 7 1
-40 -39 -1 4 5 -25 7 1
9 -7 -1 17 18 19 1
9 -1 17 18 19 -24 -5 1
-1 4 5 -51 7 1
8 9 10 12 -32 -22 14 15 16 1
-1 4 5 -25 -26 7 1
-37 -1 4 5 7 1
-1 -3 4 5 7 1
8 9 10 -1 12 14 15 16 -5 1
-41 9 17 18 19 1
-50 9 17 18 19 -43 1
9 17 18 19 -51 1
-1 -32 -22 4 5 7 1
-1 -52 4 5 7 1
8 9 10 -53 12 14 15 16 1
-1 4 5 -24 -23 7 1
-41 8 9 10 12 14 15 16 1
-21 -1 4 5 7 1
9 -54 17 18 19 1
8 9 10 12 14 15 16 -44 -43 1
8 9 10 12 -46 14 15 16 1
8 9 10 12 -2 14 15 16 1
-1 -32 4 5 7 1
-39 -1 4 40 5 -55 7 1
9 17 18 19 -25 -26 1
9 24 -1 17 18 19 -5 1
8 9 10 -7 -1 12 14 15 16 1
-40 -39 -1 4 5 -25 -55 7 1
-1 -53 4 5 7 1
8 9 10 12 -35 14 15 16 36 1
-48 -1 4 5 7 1
9 17 18 -33 19 1
-32 22 -13 1
8 9 10 12 -51 14 15 16 1
-13 9 17 18 19 1
9 17 -22 18 19 1
-13 22 1
-21 8 9 10 12 -42 14 15 16 1
-1 4 5 -55 7 1
8 9 10 12 -35 14 15 -36 16 1
8 9 10 12 -52 14 15 16 1
8 9 10 12 -42 14 15 16 1
9 17 18 -28 19 1
-34 9 17 18 19 1
8 9 10 12 14 -55 15 16 1
9 17 -53 18 19 1
8 9 10 -27 12 14 15 16 1
-1 -3 4 5 6 7 1
9 17 18 19 -55 1
-1 4 5 -49 -43 7 1
-13 -11 -1 4 5 7 1
-1 4 -28 5 7 1
8 9 10 12 -56 14 15 16 1
8 9 10 -39 12 40 14 -55 15 16 1
8 9 10 12 -32 14 15 16 1
-1 4 5 -24 7 1
-39 -1 4 40 5 7 1
-1 4 5 -44 -43 7 1
-13 8 9 10 12 14 15 16 1
9 17 18 19 -46 1
-4 8 9 10 -1 12 14 15 16 1
-54 -1 4 5 7 1
9 17 18 19 -56 1
9 -39 17 18 19 40 -55 1
-50 8 9 10 12 14 15 16 -43 1
-34 -1 4 5 7 1
-13 32 1
9 17 18 19 -38 1
-1 4 -56 5 7 1
9 17 -52 18 19 1
-21 9 17 18 19 1
8 9 10 12 14 15 16 -49 -43 1
8 9 10 12 -20 14 15 16 1
9 -48 17 18 19 1
22 -32 1
9 -47 17 18 19 1
8 9 10 -54 12 14 15 16 1
8 9 10 -1 12 -24 14 15 16 -5 1
8 9 10 -11 12 14 15 16 1
31 30 -28 29 1
-1 4 -35 5 36 7 1
8 9 10 12 -45 14 15 16 1
8 9 10 24 -1 12 14 15 16 -5 1
-47 -1 4 5 7 1
9 17 18 19 46 1
9 17 -32 -22 18 19 1
8 9 10 -40 -39 12 -25 14 -55 15 16 1
9 17 -42 18 19 1
9 -40 -39 17 18 19 -25 -55 1
-1 -2 4 5 7 1
8 9 10 12 -24 14 15 16 1
8 9 10 -40 -39 12 -25 14 15 16 1
